Minimize
  - 6 y_0 - 8 y_1 - 7 y_2 - 4 y_3 - 3 y_4 - 8 y_5 - 10 y_6 - 5 y_7 - 11 y_8
   - 8 y_9 - 8 y_10 - 10 y_11 - 15 y_12 - 10 y_13 - 9 y_14 - 10 y_15
   - 5 y_16 - 9 y_17 - 7 y_18 - 8 y_19 - 14 y_20 - 11 y_21 - 8 y_22
   - 9 y_23 - 9 y_24 - 8 y_25 - 14 y_26 - 8 y_27 - 7 y_28 - 13 y_29
   - 11 y_30 - 6 y_31 - 10 y_32 - 9 y_33 - 12 y_34 - 10 y_35 - 12 y_36
   - 6 y_37 - 2 y_38 - 8 y_39 - 8 y_41 - 9 y_42 - 11 y_43 - 8 y_44
   - 13 y_45 - 7 y_46 - 7 y_47 - 7 y_48 - 8 y_49 + 426 Constant
Subject To
 c_0: y_12 = 1
 c_1_0: y_0 + y_4 + y_7 + y_9 + y_31 + y_33 + y_37 + y_46 >= 1
 c_1_1: y_1 + y_5 + y_10 + y_16 + y_23 + y_28 + y_35 + y_42 + y_47 >= 1
 c_1_2: y_2 + y_3 + y_6 + y_18 + y_48 >= 1
 c_1_3: y_2 + y_3 + y_4 + y_7 + y_18 + y_37 + y_38 >= 1
 c_1_4: y_0 + y_3 + y_4 + y_7 + y_31 + y_37 + y_38 + y_40 >= 1
 c_1_5: y_1 + y_5 + y_10 + y_28 + y_35 + y_47 >= 1
 c_1_6: y_2 + y_6 + y_18 + y_48 >= 1
 c_1_7: y_0 + y_3 + y_4 + y_7 + y_9 + y_31 + y_33 + y_37 + y_38 + y_46
   >= 1
 c_1_8: y_8 + y_23 + y_24 + y_30 + y_42 >= 1
 c_1_9: y_0 + y_7 + y_9 + y_31 + y_33 + y_37 + y_46 >= 1
 c_1_10: y_1 + y_5 + y_10 + y_16 + y_23 + y_28 + y_35 + y_42 + y_47 >= 1
 c_1_11: y_11 + y_17 + y_22 + y_25 + y_34 + y_39 + y_41 >= 1
 c_1_12: y_12 + y_20 + y_26 + y_29 + y_34 >= 1
 c_1_13: y_13 + y_14 + y_15 + y_32 + y_43 + y_44 + y_49 >= 1
 c_1_14: y_13 + y_14 + y_15 + y_27 + y_32 + y_43 + y_44 + y_46 + y_49 >= 1
 c_1_15: y_13 + y_14 + y_15 + y_27 + y_32 + y_43 + y_44 + y_46 + y_49 >= 1
 c_1_16: y_1 + y_10 + y_16 + y_23 + y_28 + y_42 + y_47 >= 1
 c_1_17: y_11 + y_17 + y_19 + y_22 + y_25 + y_34 + y_39 + y_41 >= 1
 c_1_18: y_2 + y_3 + y_6 + y_18 + y_37 + y_48 >= 1
 c_1_19: y_17 + y_19 + y_21 + y_25 + y_36 + y_41 >= 1
 c_1_20: y_12 + y_20 + y_26 + y_29 + y_34 >= 1
 c_1_21: y_19 + y_21 + y_36 + y_44 >= 1
 c_1_22: y_11 + y_17 + y_22 + y_25 + y_39 + y_41 >= 1
 c_1_23: y_1 + y_8 + y_10 + y_16 + y_23 + y_24 + y_28 + y_30 + y_35 + y_42
   >= 1
 c_1_24: y_8 + y_23 + y_24 + y_30 + y_42 >= 1
 c_1_25: y_11 + y_17 + y_19 + y_22 + y_25 + y_34 + y_39 + y_41 >= 1
 c_1_26: y_12 + y_20 + y_26 + y_29 + y_34 + y_36 >= 1
 c_1_27: y_14 + y_15 + y_27 + y_31 + y_32 + y_33 + y_46 + y_49 >= 1
 c_1_28: y_1 + y_5 + y_10 + y_16 + y_23 + y_28 + y_35 + y_42 + y_47 >= 1
 c_1_29: y_12 + y_20 + y_26 + y_29 + y_34 + y_36 >= 1
 c_1_30: y_8 + y_23 + y_24 + y_30 + y_42 >= 1
 c_1_31: y_0 + y_4 + y_7 + y_9 + y_27 + y_31 + y_33 + y_46 >= 1
 c_1_32: y_13 + y_14 + y_15 + y_27 + y_32 + y_43 + y_44 + y_49 >= 1
 c_1_33: y_0 + y_7 + y_9 + y_27 + y_31 + y_33 + y_46 >= 1
 c_1_34: y_11 + y_12 + y_17 + y_20 + y_25 + y_26 + y_29 + y_34 + y_36
   + y_41 >= 1
 c_1_35: y_1 + y_5 + y_10 + y_23 + y_28 + y_35 + y_42 + y_45 >= 1
 c_1_36: y_19 + y_21 + y_26 + y_29 + y_34 + y_36 >= 1
 c_1_37: y_0 + y_3 + y_4 + y_7 + y_9 + y_18 + y_37 + y_38 >= 1
 c_1_38: y_3 + y_4 + y_7 + y_37 + y_38 + y_40 >= 1
 c_1_39: y_11 + y_17 + y_22 + y_25 + y_39 + y_41 >= 1
 c_1_40: y_4 + y_38 + y_40 >= 1
 c_1_41: y_11 + y_17 + y_19 + y_22 + y_25 + y_34 + y_39 + y_41 >= 1
 c_1_42: y_1 + y_8 + y_10 + y_16 + y_23 + y_24 + y_28 + y_30 + y_35 + y_42
   >= 1
 c_1_43: y_13 + y_14 + y_15 + y_32 + y_43 + y_44 + y_49 >= 1
 c_1_44: y_13 + y_14 + y_15 + y_21 + y_32 + y_43 + y_44 + y_49 >= 1
 c_1_45: y_35 + y_45 >= 1
 c_1_46: y_0 + y_7 + y_9 + y_14 + y_15 + y_27 + y_31 + y_33 + y_46 + y_49
   >= 1
 c_1_47: y_1 + y_5 + y_10 + y_16 + y_28 + y_47 >= 1
 c_1_48: y_2 + y_6 + y_18 + y_48 >= 1
 c_1_49: y_13 + y_14 + y_15 + y_27 + y_32 + y_43 + y_44 + y_46 + y_49 >= 1
Bounds
 Constant = 1
Binaries
 y_0 y_1 y_2 y_3 y_4 y_5 y_6 y_7 y_8 y_9 y_10 y_11 y_12 y_13 y_14 y_15 y_16
 y_17 y_18 y_19 y_20 y_21 y_22 y_23 y_24 y_25 y_26 y_27 y_28 y_29 y_30 y_31
 y_32 y_33 y_34 y_35 y_36 y_37 y_38 y_39 y_40 y_41 y_42 y_43 y_44 y_45 y_46
 y_47 y_48 y_49
End
